6 10 4 8 15 17 18 14 11 12 5 9 19 2 13 16 0 1 7 3  
6 10 4 8 15 17 11 18 14 12 5 9 19 2 13 16 0 1 7 3  
6 10 4 8 15 17 18 14 11 12 5 9 19 2 13 16 0 1 7 3  
4 10 6 18 15 17 8 14 11 12 5 9 19 7 2 1 0 13 16 3  
6 10 4 8 15 0 18 14 11 12 17 16 9 19 5 13 2 1 7 3  
6 10 4 18 15 17 8 11 14 12 5 9 19 2 13 16 0 1 7 3  
6 10 4 8 15 0 11 18 14 12 17 1 5 9 19 13 16 7 2 3  
6 10 4 8 15 0 11 18 14 12 5 9 19 2 16 17 1 7 3 13  
6 10 4 8 15 0 18 14 11 12 17 16 9 19 5 7 3 13 1 2  
6 10 4 8 15 0 11 18 14 12 17 16 9 19 5 7 3 13 2 1  
6 10 4 8 15 17 18 14 11 12 0 16 9 19 5 2 13 7 3 1  
4 10 6 18 15 17 8 14 11 12 5 9 19 2 13 16 0 7 3 1  
4 10 6 18 15 17 8 14 11 12 5 9 19 0 1 7 2 3 13 16  
4 10 6 18 15 17 8 14 11 12 5 9 13 2 7 1 0 19 16 3  
6 10 4 8 15 0 18 14 11 12 17 16 9 19 5 3 1 7 2 13  
4 15 6 10 7 8 17 18 14 11 12 5 9 19 2 0 1 13 16 3  
4 10 6 18 15 17 8 14 11 12 5 9 19 13 16 0 1 7 2 3  
4 10 6 18 15 17 8 14 11 12 0 16 9 19 5 3 13 2 1 7  
4 10 6 18 15 17 14 11 12 5 9 19 7 8 0 1 2 13 16 3  
6 10 4 15 18 17 8 14 11 12 0 16 9 19 5 2 13 7 3 1  
6 10 4 8 15 0 11 18 14 12 5 9 19 2 17 1 13 16 7 3  
6 10 4 8 15 0 11 18 14 12 5 9 19 2 16 17 1 7 13 3  
4 10 6 18 15 17 8 14 11 12 5 9 13 2 19 16 0 1 7 3  
4 10 6 18 15 17 8 14 11 12 5 9 19 2 13 16 7 0 1 3  
6 10 4 8 15 0 18 14 11 12 17 1 5 9 19 7 2 13 16 3  
6 10 4 8 15 0 18 11 14 12 17 16 9 19 5 7 3 1 2 13  
6 10 4 8 15 0 11 18 14 12 17 16 9 19 5 3 1 7 2 13  
6 10 4 8 15 0 11 18 14 12 17 16 9 19 5 13 2 7 3 1  
6 10 4 8 15 17 18 14 11 16 5 9 13 2 19 12 0 1 7 3  
4 10 6 18 15 17 8 14 11 12 5 9 19 16 0 1 2 7 3 13  
6 10 4 8 15 0 11 18 14 12 5 9 19 2 7 17 1 13 16 3  
